NAME: Test TSP file problem
TYPE: TSP
COMMENT: Test TSP file problem with full Matrix distance or duration
DIMENSION: 3
EDGE_WEIGHT_TYPE: EXPLICIT
EDGE_WEIGHT_FORMAT: FULL_MATRIX
DISPLAY_DATA_TYPE: TWOD_DISPLAY
EDGE_WEIGHT_SECTION 
0.0 27631.3 23363.4 
26997.7 0.0 24698.4 
24483.9 24353.1 0.0 
DISPLAY_DATA_SECTION 
1 35.639441068973944 139.72137451171875
2 35.75097043944926 139.90264892578125
3 35.78885488168885 139.72137451171875
EOF